db/data/60903153216234197431895029455558213273.z3.out
-------------------
2500.267124470
